50
    1     4     4
    2    46    46
    3    48    48
    4    19    19
    5    54    54
    6    20    20
    7    63    63
    8   100   100
    9    28    28
   10     6     6
   11    94    94
   12    41    41
   13     1     1
   14    70    70
   15     8     8
   16    60    60
   17    69    69
   18    95    95
   19    70    70
   20    83    83
   21     8     8
   22    95    95
   23    83    83
   24    95    95
   25    96    96
   26    63    63
   27    16    16
   28    42    42
   29    61    61
   30    71    71
   31     1     1
   32    52    52
   33    81    81
   34    58    58
   35    96    96
   36    82    82
   37    97    97
   38    87    87
   39    58    58
   40     6     6
   41    37    37
   42    70    70
   43    44    44
   44    55    55
   45    56    56
   46    52    52
   47    31    31
   48    64    64
   49    65    65
   50    93    93
931
